plate_width = 10;
n_circuits = 6;
n_shapes = 10;
widths = [3, 3, 3, 3, 4, 4];
lengths = [3, 4, 6, 7, 4, 6];
sizes = [| 3, 3 | 3, 4 | 4, 3 | 3, 6 | 6, 3 | 3, 7 | 7, 3 | 4, 4 | 4, 6 | 6, 4 |];
offsets = [| 0, 0 | 0, 0 | 0, 0 | 0, 0 | 0, 0 | 0, 0 | 0, 0 | 0, 0 | 0, 0 | 0, 0 |];
shapes = [{1}, {2}, {3}, {4}, {5}, {6}, {7}, {8}, {9}, {10}];
valid_shapes = [{1}, {2, 3}, {4, 5}, {6, 7}, {8}, {9, 10}];